9199.0
9744.0
9580.0
10139.0
10128.0
9619.0
9593.0
9443.0
9101.0
9485.0
9682.0
9308.0
9960.0
9326.0
9959.0
9667.0
9633.0
9808.0
9491.0
9265.0
9592.0
9779.0
9289.0
10034.0
9133.0
9597.0
9984.0
9106.0
9916.0
9202.0
